open_stacks/tiny.dzn
c = 5;
p = 9;

orders = [| 1, 0, 1, 0, 1, 0, 1, 0, 0
          | 1, 0, 0, 1, 0, 0, 1, 0, 0
          | 0, 1, 1, 0, 1, 1, 0, 1, 0
          | 0, 1, 0, 1, 0, 0, 0, 0, 1
          | 0, 0, 0, 0, 0, 1, 0, 0, 1
         |]