open_stacks/tiny.sol
objective = 3;
s = [1, 3, 5, 7, 2, 4, 6, 8, 9];
